*SPEF "IEEE 1481-1998"
*DESIGN "counter"
*DATE "Wed Aug 19 13:55:45 2026"
*VENDOR "Cadence Design Systems, Inc."
*PROGRAM "Innovus"
*VERSION "16.21-s078_1"
*DESIGN_FLOW "COUPLING C" "PIN_CAP NONE" "NAME_SCOPE LOCAL"
*DIVIDER /
*DELIMITER :
*BUS_DELIMITER []
*T_UNIT 1 NS
*C_UNIT 1 PF
*R_UNIT 1 OHM
*L_UNIT 1 HENRY

// MMMC spef file for corner 'min_rc'

*NAME_MAP

*1 FE_PHN0_scan_en
*2 clk
*3 rst
*4 SI_0
*5 scan_en
*6 count[7]
*7 count[6]
*8 count[5]
*9 count[4]
*10 count[3]
*11 count[2]
*12 count[1]
*13 count[0]
*14 SO_0
*15 n_0
*16 n_1
*17 n_2
*18 n_3
*19 n_4
*20 n_5
*21 n_6
*22 n_7
*23 n_8
*24 n_9
*25 n_10
*26 n_11
*27 n_12
*28 n_13
*29 ts_pbuf_extsi8_
*30 FE_PHC0_scan_en
*31 count_reg\[7\]
*32 count_reg\[6\]
*33 g129__7837
*34 g131__7557
*35 count_reg\[5\]
*36 g133__7654
*37 g134__8867
*38 count_reg\[4\]
*39 g136__1377
*40 count_reg\[3\]
*41 g137__3717
*42 g139__4599
*43 g140__3779
*44 count_reg\[2\]
*45 g142__2007
*46 g143__1237
*47 count_reg\[1\]
*48 g145__1297
*49 g146__2006
*50 g148__2833
*51 count_reg\[0\]
*52 ts_lockup_latchn_clkc1_intno7_i
*53 tessent_persistent_cell_buf_extsi8_i


*PORTS

*2 I *C 10.3 0
*3 I *C 11.7 0
*6 O *C 0 11.305
*7 O *C 10.1 20.52
*8 O *C 25.4 10.545
*9 O *C 14.7 0
*10 O *C 14.3 0
*11 O *C 8.7 0
*12 O *C 11.5 0
*13 O *C 0 9.595
*4 I *C 25.4 14.725
*14 O *C 8.3 20.52
*5 I *C 15.1 0


*D_NET *26 0.00043144

*CONN
*I *36:Y O *C 8.92 14.9 *L 0 *D NAND2BXL
*I *33:A I *C 7.615 12.785 *L 0.000181 *D XNOR2X1

*CAP
1 *36:Y 1.9e-05
2 *33:A 2.267e-05
3 *26:2 5.089e-05
4 *26:3 1.914e-05
5 *26:4 5.269e-05
6 *26:5 4.374e-05
7 *26:6 4.374e-05
8 *26:7 9.893e-05
9 *26:8 8.064e-05

*RES
1 *26:8 *33:A 7.54615
2 *26:8 *26:7 3.22725
3 *26:7 *26:6 1.58244
4 *26:6 *26:5 1.70037
5 *26:5 *26:4 1.58244
6 *26:4 *26:3 0.537875
7 *26:2 *26:3 7.54615
8 *26:2 *36:Y 0.907219
*END

*D_NET *14 0.00060313

*CONN
*P *14 O *C 8.3 20.52 *L 0
*I *52:Q O *C 8.3 14.155 *L 0 *D TLATNXL

*CAP
1 *14 0.00022016
2 *52:Q 9.97e-06
3 *14:2 5.291e-05
4 *14:3 6.349e-05
5 *14:4 2.282e-05
6 *14:5 0.00023378

*RES
1 *14:5 *14 13.2302
2 *14:5 *14:2 0.791218
3 *14:3 *14:2 2.02179
4 *14:4 *14:3 7.54615
5 *52:Q *14:4 0.447776
*END

*D_NET *25 0.0007984

*CONN
*I *39:Y O *C 10.92 11.48 *L 0 *D NAND2BXL
*I *36:AN I *C 9.34 14.8 *L 0.000178 *D NAND2BXL
*I *34:A I *C 11.815 14.575 *L 0.000181 *D XNOR2X1

*CAP
1 *39:Y 2.267e-05
2 *36:AN 0.00012117
3 *34:A 2.267e-05
4 *25:3 0.00011102
5 *25:4 6.047e-05
6 *25:5 7.876e-05
7 *25:6 0.0001527
8 *25:7 0.00011609
9 *25:8 5.186e-05
10 *25:9 3.964e-05
11 *25:10 2.135e-05

*RES
1 *25:4 *39:Y 7.54615
2 *25:4 *25:5 2.47459
3 *25:5 *25:6 1.58244
4 *25:10 *34:A 7.54615
5 *25:6 *25:7 6.61553
6 *25:10 *25:9 1.10174
7 *25:7 *25:8 0.791218
8 *25:8 *25:9 1.58244
9 *36:AN *25:3 4.593
10 *25:3 *25:8 7.54615
*END

*D_NET *29 0.00036316

*CONN
*I *53:Y O *C 15.16 14.67 *L 0 *D DLY4X4
*I *32:SI I *C 13.7 12.825 *L 0.000337 *D SDFFRHQX1

*CAP
1 *53:Y 2.267e-05
2 *32:SI 2.267e-05
3 *29:2 8.048e-05
4 *29:3 0.00013962
5 *29:4 7.843e-05
6 *29:5 1.929e-05

*RES
1 *29:5 *32:SI 7.54615
2 *29:5 *29:4 0.537875
3 *29:4 *29:3 3.95609
4 *29:3 *29:2 3.45023
5 *53:Y *29:2 7.54615
*END

*D_NET *5 0.00059735

*CONN
*P *5 I *C 15.1 0 *L 0
*I *30:A I *C 15.165 5.755 *L 0.000184 *D CLKBUFX2

*CAP
1 *5 2.452e-05
2 *30:A 2.267e-05
3 *5:2 3.814e-05
4 *5:3 0.00022749
5 *5:4 0.00022749
6 *5:5 3.086e-05
7 *5:6 2.618e-05

*RES
1 *5:6 *30:A 7.54615
2 *5:5 *5:6 0.989837
3 *5:5 *5:4 0.791218
4 *5:3 *5:4 12.373
5 *5:2 *5:3 0.791218
6 *5 *5:2 1.40661
*END

*D_NET *24 0.00023634

*CONN
*I *37:Y O *C 18.94 10.815 *L 0 *D XNOR2X1
*I *35:D I *C 19.1 9.595 *L 0.00034 *D SDFFRHQX1

*CAP
1 *37:Y 2.267e-05
2 *35:D 2.267e-05
3 *24:2 2.345e-05
4 *24:3 2.813e-05
5 *24:4 6.068e-05
6 *24:5 7.874e-05

*RES
1 *24:5 *35:D 7.54615
2 *24:5 *24:4 2.46445
3 *24:3 *24:4 0.791218
4 *24:3 *24:2 1.10681
5 *37:Y *24:2 7.54615
*END

*D_NET *16 0.00019844

*CONN
*I *49:Y O *C 11.74 6.3 *L 0 *D CLKXOR2X1
*I *47:D I *C 10.5 6.175 *L 0.00034 *D SDFFRHQX1

*CAP
1 *49:Y 2.267e-05
2 *47:D 2.267e-05
3 *16:4 1.789e-05
4 *16:5 5.866e-05
5 *16:6 5.866e-05
6 *16:7 1.789e-05

*RES
1 *16:7 *47:D 7.54615
2 *16:3 *16:7 0.748789
3 *16:6 *16:7 7.54615
4 *16:6 *16:5 3.38717
5 *16:4 *16:5 7.54615
6 *16:4 *49:Y 7.54615
7 *16:2 *16:4 0.748789
*END

*D_NET *17 0.00095909

*CONN
*I *50:Y O *C 6.74 6.275 *L 0 *D NAND2XL
*I *48:AN I *C 11.34 9.14 *L 0.000178 *D NAND2BXL
*I *46:A I *C 6.615 7.735 *L 0.000181 *D XNOR2X1

*CAP
1 *50:Y 2.267e-05
2 *48:AN 2.267e-05
3 *46:A 2.267e-05
4 *17:3 2.556e-05
5 *17:4 3.024e-05
6 *17:5 5.496e-05
7 *17:6 2.654e-05
8 *17:7 0.00031256
9 *17:8 0.00022442
10 *17:9 0.0001189
11 *17:10 9.79e-05

*RES
1 *17:10 *48:AN 7.54615
2 *17:3 *50:Y 7.54615
3 *17:9 *17:10 4.70912
4 *17:3 *17:4 0.989837
5 *17:8 *17:9 7.54615
6 *17:5 *17:4 0.791218
7 *17:7 *17:8 13.6623
8 *17:5 *17:6 2.21362
9 *17:6 *17:7 7.54615
10 *46:A *17:6 7.54615
*END

*D_NET *22 0.00056394

*CONN
*I *41:Y O *C 14.14 9.705 *L 0 *D XNOR2X1
*I *38:D I *C 15.7 7.505 *L 0.00034 *D SDFFRHQX1

*CAP
1 *41:Y 2.267e-05
2 *38:D 2.267e-05
3 *22:2 0.00010553
4 *22:3 0.00015949
5 *22:4 0.00013239
6 *22:5 8.677e-05
7 *22:6 1.721e-05
8 *22:7 1.721e-05

*RES
1 *22:7 *38:D 7.54615
2 *22:7 *22:6 0.494919
3 *22:5 *22:6 7.54615
4 *22:4 *22:5 4.18984
5 *22:3 *22:4 7.54615
6 *22:3 *22:2 5.6905
7 *41:Y *22:2 7.54615
*END

*D_NET *12 0.00231298

*CONN
*P *12 O *C 11.5 0 *L 0
*I *50:A I *C 6.3 6.175 *L 0.000186 *D NAND2XL
*I *49:B I *C 12.935 5.935 *L 0.000311 *D CLKXOR2X1
*I *47:Q O *C 6.975 5.43 *L 0 *D SDFFRHQX1
*I *38:SI I *C 16.3 7.695 *L 0.000337 *D SDFFRHQX1

*CAP
1 *12 0.0002243
2 *50:A 2.267e-05
3 *49:B 2.267e-05
4 *47:Q 2.267e-05
5 *38:SI 2.267e-05
6 *12:5 2.782e-05
7 *12:6 3.181e-05
8 *12:7 0.00017091
9 *12:8 0.00031731
10 *12:9 8.335e-05
11 *12:10 2.844e-05
12 *12:11 2.759e-05
13 *12:12 7.59e-05
14 *12:13 2.534e-05
15 *12:14 8.422e-05
16 *12:15 8.821e-05
17 *12:16 0.00017144
18 *12:17 0.00012692
19 *12:18 0.00025171
20 *12:19 8.448e-05
21 *12:20 8.448e-05
22 *12:21 0.00017419
23 *12:22 9.276e-05
24 *12:23 2.556e-05
25 *12:24 2.556e-05

*RES
1 *12:10 *50:A 7.54615
2 *12:9 *12:10 1.48681
3 *12:11 *47:Q 7.54615
4 *12:9 *12:12 2.37366
5 *12:12 *12:11 1.74213
6 *12:24 *38:SI 7.54615
7 *12:13 *12:12 0.98578
8 *12:24 *12:23 0.989837
9 *12:14 *12:13 7.54615
10 *12:7 *12:23 7.54615
11 *12:14 *12:15 4.1555
12 *12:8 *12:7 9.94229
13 *12:16 *12:15 0.752535
14 *12:22 *12:8 7.54615
15 *12:16 *12:17 6.911
16 *12:21 *49:B 7.54615
17 *12:21 *12:22 6.58818
18 *12:17 *12:6 0.752535
19 *12:20 *12:21 0.98578
20 *12:6 *12:5 1.04315
21 *12:19 *12:20 3.95609
22 *12:18 *12:5 7.54615
23 *12:18 *12:19 0.98578
24 *12 *12:18 13.2302
*END

*D_NET *20 0.00111236

*CONN
*I *43:Y O *C 12.74 9.705 *L 0 *D XNOR2X1
*I *40:D I *C 19.1 6.175 *L 0.00034 *D SDFFRHQX1

*CAP
1 *43:Y 9.67e-06
2 *40:D 2.267e-05
3 *20:2 0.00047025
4 *20:3 0.00025831
5 *20:4 2.252e-05
6 *20:5 1.935e-05
7 *20:6 1.935e-05
8 *20:7 0.00013273
9 *20:8 0.00015751

*RES
1 *20:8 *40:D 7.54615
2 *20:8 *20:7 8.14263
3 *20:3 *20:7 7.54615
4 *20:2 *20:3 17.8689
5 *20:6 *20:2 7.54615
6 *20:6 *20:5 0.540291
7 *20:4 *20:5 7.54615
8 *20:4 *43:Y 0.4593
*END

*D_NET *18 0.0005433

*CONN
*I *46:Y O *C 6.34 7.395 *L 0 *D XNOR2X1
*I *44:D I *C 8.9 9.595 *L 0.00034 *D SDFFRHQX1

*CAP
1 *46:Y 9.69e-06
2 *44:D 2.267e-05
3 *18:2 2.254e-05
4 *18:3 5.765e-05
5 *18:4 5.765e-05
6 *18:5 0.0001924
7 *18:6 0.00014642
8 *18:7 1.714e-05
9 *18:8 1.714e-05

*RES
1 *18:8 *44:D 7.54615
2 *18:7 *18:8 0.49289
3 *18:6 *18:7 7.54615
4 *18:5 *18:6 7.31933
5 *18:4 *18:5 7.54615
6 *18:3 *18:4 3.32043
7 *18:2 *18:3 7.54615
8 *18:2 *46:Y 0.4593
*END

*D_NET *19 0.00046743

*CONN
*I *48:Y O *C 10.92 9.04 *L 0 *D NAND2BXL
*I *45:AN I *C 12.14 9.14 *L 0.000178 *D NAND2BXL
*I *43:A I *C 13.015 9.365 *L 0.000181 *D XNOR2X1

*CAP
1 *48:Y 2.267e-05
2 *45:AN 2.267e-05
3 *43:A 2.267e-05
4 *19:3 1.736e-05
5 *19:4 1.736e-05
6 *19:5 3.465e-05
7 *19:6 0.0001825
8 *19:8 1.789e-05
9 *19:9 6.786e-05
10 *19:10 4.124e-05
11 *19:11 2.056e-05

*RES
1 *19:4 *48:Y 7.54615
2 *19:11 *43:A 7.54615
3 *19:4 *19:3 0.496964
4 *19:10 *19:11 0.993927
5 *19:9 *19:3 7.54615
6 *19:5 *19:10 7.54615
7 *19:9 *19:6 4.11519
8 *19:6 *19:5 2.09062
9 *19:8 *45:AN 7.54615
10 *19:8 *19:6 7.54615
11 *19:7 *19:8 0.748789
*END

*D_NET *13 0.00334162

*CONN
*P *13 O *C 0 9.595 *L 0
*I *52:D I *C 5.68 14.79 *L 0.000181 *D TLATNXL
*I *51:Q O *C 13.34 11.59 *L 0 *D SDFFRX1
*I *50:B I *C 6.6 5.935 *L 0.000143 *D NAND2XL
*I *49:A I *C 12.19 6.11 *L 0.000181 *D CLKXOR2X1

*CAP
1 *13 8.24e-06
2 *52:D 2.267e-05
3 *51:Q 2.267e-05
4 *50:B 3.262e-05
5 *49:A 2.267e-05
6 *13:5 5.847e-05
7 *13:6 7.822e-05
8 *13:7 0.00012762
9 *13:8 0.00015067
10 *13:9 6.83e-05
11 *13:10 8.244e-05
12 *13:11 0.00013466
13 *13:12 2.812e-05
14 *13:13 5.78e-05
15 *13:14 0.00029344
16 *13:15 0.00023282
17 *13:16 0.00012248
18 *13:17 0.00024765
19 *13:18 0.00016478
20 *13:19 0.00016478
21 *13:20 1.718e-05
22 *13:21 3.46e-05
23 *13:22 3.834e-05
24 *13:23 0.00014962
25 *13:24 0.00014554
26 *13:25 0.00019306
27 *13:26 9.253e-05
28 *13:27 9.253e-05
29 *13:28 4.428e-05
30 *13:29 4.428e-05
31 *13:30 0.00013448
32 *13:31 0.0001298
33 *13:22 *2:12 1.47e-06
34 *13:11 *2:13 1.47e-06
35 *13:11 *2:12 8.53e-06
36 *13:23 *2:13 8.53e-06
37 *13:24 *2:13 6.8e-06
38 *13:25 *2:14 6.8e-06
39 *13:16 *2:18 1.04e-06
40 *13:15 *2:19 1.04e-06
41 *13:25 *2:16 2.316e-05
42 *13:26 *2:26 2.376e-05
43 *13:27 *2:27 2.99e-06
44 *13:26 *2:28 2.99e-06
45 *13:7 *2:28 7.84e-06
46 *13:8 *2:29 7.84e-06

*RES
1 *13:16 *51:Q 7.54615
2 *13:15 *13:16 6.75406
3 *13:9 *13:15 0.791218
4 *13:13 *49:A 7.54615
5 *13:10 *13:9 5.33077
6 *13:13 *13:12 1.48476
7 *13:22 *13:10 7.54615
8 *13:31 *52:D 7.54615
9 *13:11 *13:12 7.54615
10 *13:11 *13:22 3.06415
11 *13:30 *13:31 6.40757
12 *13:23 *13:11 4.18555
13 *13:30 *13:29 0.791218
14 *13:24 *13:23 0.752535
15 *13:28 *13:29 1.47867
16 *13:25 *13:24 9.14575
17 *13:28 *13:27 0.791218
18 *13:25 *13:5 0.752535
19 *13:26 *13:27 5.30564
20 *13:6 *13:5 4.11519
21 *13:7 *13:26 0.791218
22 *13:8 *13:6 7.54615
23 *13:8 *13:7 8.72649
24 *13 *13:20 0.454508
25 *13:21 *13:8 2.29728
26 *13:19 *13:20 7.54615
27 *13:14 *13:21 7.54615
28 *13:14 *50:B 1.8372
29 *13:18 *13:19 9.36491
30 *13:17 *13:14 14.5129
31 *13:17 *13:18 7.54615
*END

*D_NET *21 0.0007348

*CONN
*I *45:Y O *C 11.72 9.04 *L 0 *D NAND2BXL
*I *42:AN I *C 12.14 11.38 *L 0.000178 *D NAND2BXL
*I *41:A I *C 14.415 9.365 *L 0.000181 *D XNOR2X1

*CAP
1 *45:Y 2.267e-05
2 *42:AN 2.267e-05
3 *41:A 2.267e-05
4 *21:3 8.218e-05
5 *21:4 0.0002157
6 *21:6 4.148e-05
7 *21:7 1.789e-05
8 *21:8 2.324e-05
9 *21:9 5.515e-05
10 *21:10 0.00017309
11 *21:11 5.806e-05

*RES
1 *21:8 *45:Y 7.54615
2 *21:8 *21:9 1.13719
3 *21:11 *42:AN 7.54615
4 *21:9 *21:10 2.37366
5 *21:10 *21:11 3.50739
6 *21:6 *21:10 1.07817
7 *21:4 *21:6 7.54615
8 *21:4 *21:3 6.59862
9 *21:7 *41:A 7.54615
10 *21:7 *21:3 7.54615
11 *21:5 *21:7 0.748789
*END

*D_NET *11 0.0024641

*CONN
*P *11 O *C 8.7 0 *L 0
*I *48:B I *C 10.965 9.53 *L 0.000143 *D NAND2BXL
*I *47:SI I *C 11.1 5.985 *L 0.000337 *D SDFFRHQX1
*I *46:B I *C 7.345 7.735 *L 0.000315 *D XNOR2X1
*I *44:Q O *C 5.375 8.85 *L 0 *D SDFFRHQX1

*CAP
1 *11 0.00026271
2 *48:B 2.267e-05
3 *47:SI 2.267e-05
4 *46:B 2.267e-05
5 *44:Q 2.267e-05
6 *11:5 0.00012975
7 *11:6 0.00015201
8 *11:7 7.36e-05
9 *11:8 0.0001236
10 *11:9 0.00039437
11 *11:10 8.872e-05
12 *11:11 8.872e-05
13 *11:12 3.925e-05
14 *11:13 0.00012251
15 *11:14 0.00014018
16 *11:15 0.00013933
17 *11:16 0.00011514
18 *11:17 0.00011913
19 *11:20 0.00011309
20 *11:21 1.672e-05
21 *11:22 1.672e-05
22 *11:23 9.377e-05
23 *11:24 1.789e-05
24 *11:25 1.789e-05
25 *11:22 *2:30 4.9e-07
26 *11:21 *2 4.9e-07
27 *11:6 *2 2.374e-05
28 *11:9 *2:14 2.322e-05
29 *11:8 *2:15 1.24e-05
30 *11:23 *2:31 7.13e-06
31 *11:15 *2:32 7.13e-06
32 *11:23 *2:33 7.84e-06
33 *11:15 *2:15 7.84e-06
34 *11:14 *2:29 1.804e-05

*RES
1 *11:22 *47:SI 7.54615
2 *11:21 *11:22 0.494919
3 *11:5 *11:21 7.54615
4 *11:6 *11:5 6.28477
5 *11 *11:9 14.216
6 *11:9 *11:6 7.54615
7 *11:25 *48:B 7.54615
8 *11:19 *11:25 0.748789
9 *11:9 *11:20 5.44006
10 *11:16 *11:25 7.54615
11 *11:7 *11:20 7.54615
12 *11:17 *11:16 4.67708
13 *11:8 *11:7 5.38591
14 *11:17 *11:10 0.752535
15 *11:15 *46:B 7.54615
16 *11:15 *11:8 7.54615
17 *11:11 *11:10 4.17047
18 *11:15 *11:23 5.0522
19 *11:12 *11:11 0.752535
20 *11:13 *11:23 7.54615
21 *11:13 *11:12 1.04315
22 *11:14 *11:13 4.68565
23 *11:24 *44:Q 7.54615
24 *11:24 *11:14 7.54615
25 *11:18 *11:24 0.748789
*END

*D_NET *10 0.00258677

*CONN
*P *10 O *C 14.3 0 *L 0
*I *45:B I *C 11.765 9.53 *L 0.000143 *D NAND2BXL
*I *43:B I *C 13.745 9.365 *L 0.000315 *D XNOR2X1
*I *40:Q O *C 15.575 5.43 *L 0 *D SDFFRHQX1
*I *35:SI I *C 19.7 9.405 *L 0.000337 *D SDFFRHQX1

*CAP
1 *10 2.446e-05
2 *45:B 2.267e-05
3 *43:B 2.267e-05
4 *40:Q 2.267e-05
5 *35:SI 2.267e-05
6 *10:5 0.00017978
7 *10:6 0.00032654
8 *10:7 0.00010803
9 *10:8 0.00015445
10 *10:9 0.00011172
11 *10:10 0.00011172
12 *10:11 0.00011314
13 *10:12 0.0001919
14 *10:13 2.717e-05
15 *10:14 0.00014675
16 *10:15 1.969e-05
17 *10:16 1.969e-05
18 *10:17 4.922e-05
19 *10:18 5.39e-05
20 *10:19 0.00026304
21 *10:20 0.00026304
22 *10:21 3.808e-05
23 *10:22 7.695e-05
24 *10:23 5.914e-05
25 *10:24 4.05e-05
26 *10:6 *2:34 7.52e-06
27 *10:7 *2:35 7.52e-06
28 *10:7 *2:34 2.93e-06
29 *10:22 *2:35 2.93e-06
30 *10:7 *2:35 2.93e-06
31 *10:22 *2:36 2.93e-06
32 *10:24 *2:37 1.412e-05
33 *10:23 *2:38 1.412e-05
34 *10:23 *2:35 1.864e-05
35 *10:18 *2:35 2.106e-05
36 *10:13 *2:18 2.07e-06
37 *10:14 *2:19 2.07e-06
38 *10:14 *2:19 9.17e-06
39 *10:8 *2:20 9.17e-06

*RES
1 *10:16 *45:B 7.54615
2 *10:16 *10:15 0.540291
3 *10:12 *10:15 7.54615
4 *10:12 *10:11 5.13491
5 *10:13 *10:11 7.54615
6 *10:9 *35:SI 7.54615
7 *10 *10:21 1.40661
8 *10:14 *43:B 7.54615
9 *10:14 *10:13 1.08058
10 *10:23 *40:Q 7.54615
11 *10:10 *10:9 4.94514
12 *10:20 *10:21 0.791218
13 *10:8 *10:14 5.86486
14 *10:23 *10:24 3.36866
15 *10:5 *10:10 7.54615
16 *10:20 *10:19 15.8314
17 *10:22 *10:8 7.54615
18 *10:6 *10:24 7.54615
19 *10:6 *10:5 10.9511
20 *10:19 *10:18 0.791218
21 *10:22 *10:7 2.43264
22 *10:7 *10:6 3.14238
23 *10:18 *10:17 1.97967
24 *10:17 *10:7 7.54615
*END

*D_NET *9 0.00250903

*CONN
*P *9 O *C 14.7 0 *L 0
*I *42:B I *C 11.765 10.99 *L 0.000143 *D NAND2BXL
*I *41:B I *C 15.145 9.365 *L 0.000315 *D XNOR2X1
*I *40:SI I *C 19.7 5.985 *L 0.000337 *D SDFFRHQX1
*I *38:Q O *C 12.175 8.25 *L 0 *D SDFFRHQX1

*CAP
1 *9 0.00026157
2 *42:B 2.267e-05
3 *41:B 2.267e-05
4 *40:SI 2.267e-05
5 *38:Q 2.267e-05
6 *9:5 0.00027863
7 *9:6 6.535e-05
8 *9:7 8.299e-05
9 *9:8 0.00016577
10 *9:9 0.00029824
11 *9:10 4.79e-05
12 *9:11 9.342e-05
13 *9:12 0.00024417
14 *9:13 7.573e-05
15 *9:14 4.27e-05
16 *9:15 6.26e-05
17 *9:16 0.00012451
18 *9:18 0.00025938
19 *9:19 0.00025938
20 *9:20 1.789e-05
21 *9:21 3.812e-05

*RES
1 *9:7 *38:Q 7.54615
2 *9:14 *42:B 7.54615
3 *9:7 *9:6 3.86105
4 *9:15 *9:14 1.98377
5 *9:6 *9:11 0.791218
6 *9:13 *9:15 7.54615
7 *9:11 *9:10 4.12702
8 *9:13 *9:12 1.57119
9 *9:12 *9:10 7.54615
10 *9:12 *9:16 6.7999
11 *9:21 *9:16 7.54615
12 *9:8 *41:B 7.54615
13 *9:8 *9:21 2.10295
14 *9:9 *9:8 9.95148
15 *9 *9:5 14.8304
16 *9:5 *9:9 0.791218
17 *9:18 *9:5 7.54615
18 *9:18 *9:19 13.1711
19 *9:20 *40:SI 7.54615
20 *9:20 *9:19 7.54615
21 *9:17 *9:20 0.748789
*END

*D_NET *8 0.00194697

*CONN
*P *8 O *C 25.4 10.545 *L 0
*I *51:SI I *C 18.36 11.005 *L 0.000182 *D SDFFRX1
*I *39:B I *C 10.965 10.99 *L 0.000143 *D NAND2BXL
*I *37:B I *C 19.945 11.155 *L 0.000315 *D XNOR2X1
*I *35:Q O *C 15.575 8.85 *L 0 *D SDFFRHQX1

*CAP
1 *8 0.00026142
2 *51:SI 2.267e-05
3 *39:B 2.267e-05
4 *37:B 2.267e-05
5 *35:Q 2.267e-05
6 *8:5 3.373e-05
7 *8:6 3.373e-05
8 *8:7 0.00032243
9 *8:8 0.00023794
10 *8:9 6.037e-05
11 *8:10 6.037e-05
12 *8:11 2.563e-05
13 *8:12 2.563e-05
14 *8:13 2.164e-05
15 *8:14 2.164e-05
16 *8:15 3.253e-05
17 *8:16 9.49e-05
18 *8:17 7.264e-05
19 *8:18 5.07e-05
20 *8:19 0.00013511
21 *8:20 0.00036588

*RES
1 *8:11 *39:B 7.54615
2 *8:10 *35:Q 7.54615
3 *8:12 *8:11 0.993927
4 *8:10 *8:9 2.47055
5 *8:7 *8:12 7.54615
6 *8:8 *8:9 7.54615
7 *8:7 *8:8 12.4194
8 *8:8 *8:15 1.04315
9 *8:16 *8:15 0.752535
10 *8:16 *8:17 3.77941
11 *8:14 *51:SI 7.54615
12 *8:17 *8:18 0.752535
13 *8:13 *8:14 1.10174
14 *8:5 *37:B 7.54615
15 *8:18 *8:19 2.0863
16 *8:19 *8:13 7.54615
17 *8:6 *8:5 1.48273
18 *8:19 *8:20 4.54954
19 *8:20 *8:6 7.54615
20 *8:20 *8 14.4793
*END

*D_NET *15 0.00066918

*CONN
*I *51:D I *C 17.28 10.835 *L 0.000184 *D SDFFRX1
*I *51:QN O *C 12.69 11.55 *L 0 *D SDFFRX1

*CAP
1 *51:D 2.267e-05
2 *51:QN 2.267e-05
3 *15:2 0.00033825
4 *15:3 0.00024981
5 *15:6 1.789e-05
6 *15:7 1.789e-05

*RES
1 *15:7 *51:D 7.54615
2 *15:5 *15:7 0.748789
3 *15:3 *15:7 7.54615
4 *15:2 *15:3 12.0458
5 *15:6 *51:QN 7.54615
6 *15:6 *15:2 7.54615
7 *15:4 *15:6 0.748789
*END

*D_NET *28 0.00050219

*CONN
*I *33:Y O *C 7.34 13.125 *L 0 *D XNOR2X1
*I *31:D I *C 8.9 10.925 *L 0.00034 *D SDFFRHQX1

*CAP
1 *33:Y 5.85e-06
2 *31:D 2.267e-05
3 *28:3 3.332e-05
4 *28:4 9.683e-05
5 *28:5 0.00012771
6 *28:6 0.00012689
7 *28:7 7.103e-05
8 *28:8 1.789e-05

*RES
1 *28:3 *33:Y 0.4593
2 *28:4 *28:3 7.54615
3 *28:5 *28:4 3.76512
4 *28:6 *28:5 7.54615
5 *28:6 *28:7 5.17458
6 *28:8 *31:D 7.54615
7 *28:8 *28:7 7.54615
8 *28:2 *28:8 0.748789
*END

*D_NET *23 0.00107781

*CONN
*I *42:Y O *C 11.72 11.48 *L 0 *D NAND2BXL
*I *39:AN I *C 11.34 11.38 *L 0.000178 *D NAND2BXL
*I *37:A I *C 19.215 11.155 *L 0.000181 *D XNOR2X1

*CAP
1 *42:Y 2.267e-05
2 *39:AN 2.267e-05
3 *37:A 2.267e-05
4 *23:3 0.00051602
5 *23:4 0.00038268
6 *23:5 2.135e-05
7 *23:6 2.135e-05
8 *23:7 2.6e-05
9 *23:8 1.714e-05
10 *23:9 2.526e-05

*RES
1 *23:6 *37:A 7.54615
2 *23:6 *23:5 1.10174
3 *23:4 *23:5 7.54615
4 *23:8 *42:Y 7.54615
5 *23:3 *23:4 19.8738
6 *23:9 *23:8 0.49289
7 *23:9 *23:3 7.54615
8 *23:7 *39:AN 7.54615
9 *23:7 *23:9 0.791218
*END

*D_NET *6 0.00168798

*CONN
*P *6 O *C 0 11.305 *L 0
*I *44:SI I *C 9.5 9.405 *L 0.000337 *D SDFFRHQX1
*I *33:B I *C 8.345 12.785 *L 0.000315 *D XNOR2X1
*I *31:Q O *C 5.375 11.67 *L 0 *D SDFFRHQX1

*CAP
1 *6 8.24e-06
2 *44:SI 2.267e-05
3 *33:B 2.267e-05
4 *31:Q 1.19e-05
5 *6:4 0.00017706
6 *6:5 0.00026236
7 *6:6 0.00015933
8 *6:7 0.00024969
9 *6:8 4.694e-05
10 *6:9 2.534e-05
11 *6:10 1.718e-05
12 *6:11 0.00014256
13 *6:12 5.619e-05
14 *6:13 0.00025176
15 *6:14 4.845e-05
16 *6:15 2.545e-05
17 *6:16 0.00010256
18 *6:17 5.763e-05

*RES
1 *6:12 *44:SI 7.54615
2 *6:12 *6:11 3.46752
3 *6:6 *6:11 5.53853
4 *6:17 *33:B 7.54615
5 *6:6 *6:16 2.47459
6 *6:16 *6:17 3.92307
7 *6:4 *6:16 7.54615
8 *6:5 *6:4 8.33881
9 *6:15 *6:5 7.54615
10 *6 *6:10 0.454508
11 *6:14 *6:15 1.70037
12 *6:9 *6:10 7.54615
13 *6:13 *31:Q 1.21442
14 *6:13 *6:14 7.54615
15 *6:8 *6:9 0.98578
16 *6:7 *6:13 10.5639
17 *6:7 *6:8 7.54615
*END

*D_NET *1 0.00347909

*CONN
*I *51:SE I *C 18.54 10.99 *L 0.000352 *D SDFFRX1
*I *47:SE I *C 11.43 6.075 *L 0.000503 *D SDFFRHQX1
*I *44:SE I *C 9.83 9.495 *L 0.000503 *D SDFFRHQX1
*I *40:SE I *C 20.03 6.075 *L 0.000503 *D SDFFRHQX1
*I *38:SE I *C 16.63 7.605 *L 0.000503 *D SDFFRHQX1
*I *35:SE I *C 20.03 9.495 *L 0.000503 *D SDFFRHQX1
*I *32:SE I *C 14.03 12.915 *L 0.000503 *D SDFFRHQX1
*I *31:SE I *C 9.83 11.025 *L 0.000503 *D SDFFRHQX1
*I *30:Y O *C 14.81 6.225 *L 0 *D CLKBUFX2

*CAP
1 *51:SE 2.267e-05
2 *47:SE 2.267e-05
3 *44:SE 2.267e-05
4 *40:SE 2.267e-05
5 *38:SE 2.267e-05
6 *35:SE 2.267e-05
7 *32:SE 2.267e-05
8 *31:SE 2.267e-05
9 *30:Y 2.267e-05
10 *1:9 0.00011151
11 *1:10 0.00016869
12 *1:11 2.776e-05
13 *1:12 2.776e-05
14 *1:13 7.554e-05
15 *1:14 4.358e-05
16 *1:15 0.00021193
17 *1:16 7.212e-05
18 *1:17 0.00010417
19 *1:18 0.0001666
20 *1:19 0.00021182
21 *1:20 5.28e-05
22 *1:21 1.756e-05
23 *1:22 1.756e-05
24 *1:23 0.00020042
25 *1:24 9.335e-05
26 *1:25 0.00012648
27 *1:26 6.812e-05
28 *1:27 0.00017906
29 *1:28 0.00020734
30 *1:29 9.158e-05
31 *1:30 0.0001867
32 *1:31 1.914e-05
33 *1:32 1.914e-05
34 *1:33 0.00010109
35 *1:34 3.044e-05
36 *1:36 1.725e-05
37 *1:37 6.782e-05
38 *1:38 1.789e-05
39 *1:39 6.13e-05
40 *1:40 6.088e-05
41 *1:41 6.586e-05
42 *1:42 0.00020005
43 *1:43 0.00015175

*RES
1 *1:11 *32:SE 7.54615
2 *1:12 *1:11 1.73656
3 *1:43 *1:12 7.54615
4 *1:34 *44:SE 7.54615
5 *1:39 *31:SE 7.54615
6 *1:42 *1:43 9.85099
7 *1:34 *1:33 1.08058
8 *1:33 *1:39 2.47459
9 *1:9 *1:42 7.54615
10 *1:33 *1:10 1.58244
11 *1:10 *1:9 7.13632
12 *1:24 *1:10 4.09101
13 *1:36 *47:SE 7.54615
14 *1:24 *1:18 3.16487
15 *1:36 *1:19 0.494919
16 *1:19 *1:18 5.92688
17 *1:17 *1:19 7.54615
18 *1:17 *1:16 3.13808
19 *1:25 *1:16 0.752535
20 *1:25 *1:41 3.25708
21 *1:32 *30:Y 7.54615
22 *1:41 *1:40 0.752535
23 *1:32 *1:31 0.537875
24 *1:37 *38:SE 7.54615
25 *1:22 *40:SE 7.54615
26 *1:40 *1:30 4.21322
27 *1:30 *1:31 7.54615
28 *1:29 *1:37 2.97566
29 *1:22 *1:21 0.494919
30 *1:30 *1:28 4.55716
31 *1:28 *1:29 7.54615
32 *1:26 *1:21 7.54615
33 *1:28 *1:27 5.76104
34 *1:27 *1:26 2.61865
35 *1:23 *1:27 7.54615
36 *1:14 *51:SE 7.54615
37 *1:23 *1:15 8.88998
38 *1:15 *1:14 3.40343
39 *1:13 *1:15 7.54615
40 *1:13 *1:20 2.61435
41 *1:38 *35:SE 7.54615
42 *1:38 *1:20 7.54615
43 *1:35 *1:38 0.748789
*END

*D_NET *2 0.00461204

*CONN
*P *2 I *C 10.3 0 *L 0
*I *52:GN I *C 7.3 14.535 *L 0.00018 *D TLATNXL
*I *51:CK I *C 13.68 11.37 *L 0.000182 *D SDFFRX1
*I *47:CK I *C 7.1 5.985 *L 0.000183 *D SDFFRHQX1
*I *44:CK I *C 5.5 9.405 *L 0.000183 *D SDFFRHQX1
*I *40:CK I *C 15.7 5.985 *L 0.000183 *D SDFFRHQX1
*I *38:CK I *C 12.3 7.695 *L 0.000183 *D SDFFRHQX1
*I *35:CK I *C 15.7 9.405 *L 0.000183 *D SDFFRHQX1
*I *32:CK I *C 9.7 12.825 *L 0.000183 *D SDFFRHQX1
*I *31:CK I *C 5.5 11.115 *L 0.000183 *D SDFFRHQX1

*CAP
1 *2 0.00030708
2 *52:GN 2.267e-05
3 *51:CK 2.267e-05
4 *47:CK 2.267e-05
5 *44:CK 2.267e-05
6 *40:CK 2.267e-05
7 *38:CK 2.267e-05
8 *35:CK 2.267e-05
9 *32:CK 2.267e-05
10 *31:CK 2.267e-05
11 *2:10 9.455e-05
12 *2:11 0.00021033
13 *2:12 0.00019272
14 *2:13 0.0002382
15 *2:14 0.00019486
16 *2:15 0.00011562
17 *2:16 6.205e-05
18 *2:17 0.00013008
19 *2:18 8.761e-05
20 *2:19 0.00020455
21 *2:20 0.00013414
22 *2:21 4.169e-05
23 *2:22 4.169e-05
24 *2:23 2.404e-05
25 *2:24 1.936e-05
26 *2:25 7.296e-05
27 *2:26 0.00013525
28 *2:27 2.327e-05
29 *2:28 6.24e-05
30 *2:29 4.6e-05
31 *2:30 0.00029376
32 *2:31 7.114e-05
33 *2:32 7.114e-05
34 *2:33 5.432e-05
35 *2:34 6.146e-05
36 *2:35 0.00012457
37 *2:36 2.977e-05
38 *2:37 3.824e-05
39 *2:38 5.846e-05
40 *2:39 1.729e-05
41 *2:40 1.729e-05
42 *2:41 8.557e-05
43 *2:42 0.00021654
44 *2:43 5.462e-05
45 *2:44 5.394e-05
46 *2:46 5.863e-05
47 *2:47 1.259e-05
48 *2:48 0.00017453
49 *2:49 0.00012805
50 *2:50 1.789e-05
51 *2:34 *10:6 7.52e-06
52 *2:35 *10:7 7.52e-06
53 *2:34 *10:7 2.93e-06
54 *2:35 *10:22 2.93e-06
55 *2:35 *10:7 2.93e-06
56 *2:36 *10:22 2.93e-06
57 *2:37 *10:24 1.412e-05
58 *2:38 *10:23 1.412e-05
59 *2:35 *10:23 1.864e-05
60 *2:35 *10:18 2.106e-05
61 *2:18 *10:13 2.07e-06
62 *2:19 *10:14 2.07e-06
63 *2:19 *10:14 9.17e-06
64 *2:20 *10:8 9.17e-06
65 *2:12 *13:22 1.47e-06
66 *2:13 *13:11 1.47e-06
67 *2:12 *13:11 8.53e-06
68 *2:13 *13:23 8.53e-06
69 *2:13 *13:24 6.8e-06
70 *2:14 *13:25 6.8e-06
71 *2:18 *13:16 1.04e-06
72 *2:19 *13:15 1.04e-06
73 *2:16 *13:25 2.316e-05
74 *2:26 *13:26 2.376e-05
75 *2:27 *13:27 2.99e-06
76 *2:28 *13:26 2.99e-06
77 *2:28 *13:7 7.84e-06
78 *2:29 *13:8 7.84e-06
79 *2:30 *11:22 4.9e-07
80 *2 *11:21 4.9e-07
81 *2 *11:6 2.374e-05
82 *2:14 *11:9 2.322e-05
83 *2:15 *11:8 1.24e-05
84 *2:31 *11:23 7.13e-06
85 *2:32 *11:15 7.13e-06
86 *2:33 *11:23 7.84e-06
87 *2:15 *11:15 7.84e-06
88 *2:29 *11:14 1.804e-05

*RES
1 *2:39 *35:CK 7.54615
2 *2:40 *2:39 0.496964
3 *2:47 *51:CK 7.54615
4 *2:25 *2:40 7.54615
5 *2:43 *2:47 1.10174
6 *2:38 *40:CK 7.54615
7 *2:17 *2:25 5.19551
8 *2:43 *2:18 1.58244
9 *2:38 *2:37 2.92581
10 *2:19 *2:17 7.54615
11 *2:19 *2:18 5.03897
12 *2:34 *2:37 7.54615
13 *2:20 *2:19 6.79182
14 *2:35 *2:34 4.83498
15 *2:35 *2:20 7.54615
16 *2:21 *38:CK 7.54615
17 *2:36 *2:35 1.04746
18 *2:22 *2:21 1.67083
19 *2:36 *2:46 0.752535
20 *2:12 *2:22 7.54615
21 *2:12 *2:46 3.25708
22 *2 *2:30 18.9073
23 *2:24 *47:CK 7.54615
24 *2:13 *2:12 5.82946
25 *2:13 *2:30 7.54615
26 *2:24 *2:23 0.540291
27 *2:14 *2:13 7.85596
28 *2:23 *2:16 0.791218
29 *2:15 *2:14 7.54615
30 *2:16 *2:15 2.48278
31 *2:15 *2:33 2.57057
32 *2:29 *44:CK 7.54615
33 *2:27 *31:CK 7.54615
34 *2:33 *2:32 0.791218
35 *2:29 *2:28 4.06356
36 *2:28 *2:27 0.991886
37 *2:32 *2:31 4.52454
38 *2:26 *2:28 7.54615
39 *2:44 *2:31 0.791218
40 *2:26 *2:41 4.69418
41 *2:44 *2:42 3.50647
42 *2:42 *2:41 7.54615
43 *2:10 *52:GN 7.54615
44 *2:42 *2:11 5.77257
45 *2:11 *2:10 5.02951
46 *2:48 *2:11 7.54615
47 *2:48 *2:49 6.23325
48 *2:50 *32:CK 7.54615
49 *2:50 *2:49 7.54615
50 *2:45 *2:50 0.748789
*END

*D_NET *27 0.0004725

*CONN
*I *34:Y O *C 11.54 14.235 *L 0 *D XNOR2X1
*I *32:D I *C 13.1 13.015 *L 0.00034 *D SDFFRHQX1

*CAP
1 *34:Y 2.267e-05
2 *32:D 2.267e-05
3 *27:2 7.195e-05
4 *27:3 7.195e-05
5 *27:4 0.0001009
6 *27:5 0.00014728
7 *27:6 1.754e-05
8 *27:7 1.754e-05

*RES
1 *27:7 *32:D 7.54615
2 *27:7 *27:6 0.494919
3 *27:4 *27:6 7.54615
4 *27:5 *27:4 4.1726
5 *27:3 *27:5 7.54615
6 *27:3 *27:2 2.96951
7 *34:Y *27:2 7.54615
*END

*D_NET *7 0.00156136

*CONN
*P *7 O *C 10.1 20.52 *L 0
*I *36:B I *C 8.965 14.41 *L 0.000143 *D NAND2BXL
*I *34:B I *C 12.545 14.575 *L 0.000315 *D XNOR2X1
*I *32:Q O *C 9.575 12.27 *L 0 *D SDFFRHQX1
*I *31:SI I *C 9.5 11.115 *L 0.000337 *D SDFFRHQX1

*CAP
1 *7 0.00026083
2 *36:B 2.267e-05
3 *34:B 2.267e-05
4 *32:Q 2.844e-05
5 *31:SI 2.267e-05
6 *7:5 1.725e-05
7 *7:6 1.725e-05
8 *7:7 0.00029277
9 *7:8 0.00011009
10 *7:9 9.113e-05
11 *7:10 9.238e-05
12 *7:11 6.047e-05
13 *7:12 4.129e-05
14 *7:13 8.048e-05
15 *7:14 7.418e-05
16 *7:15 0.00019705
17 *7:16 0.00012974

*RES
1 *7:11 *31:SI 7.54615
2 *7:11 *7:10 2.47459
3 *7:12 *32:Q 1.3779
4 *7:9 *7:10 2.37366
5 *7:8 *7:12 7.54615
6 *7:9 *7:8 1.97765
7 *7:5 *34:B 7.54615
8 *7:8 *7:13 3.45023
9 *7:13 *36:B 7.54615
10 *7:6 *7:5 0.494919
11 *7:14 *7:13 7.54615
12 *7:16 *7:6 7.54615
13 *7:14 *7:15 3.11663
14 *7:15 *7:16 5.71381
15 *7:7 *7:15 7.54615
16 *7:7 *7 15.6987
*END

*D_NET *4 0.00057604

*CONN
*P *4 I *C 25.4 14.725 *L 0
*I *53:A I *C 19.97 14.74 *L 0.000178 *D DLY4X4

*CAP
1 *4 0.00024855
2 *53:A 2.267e-05
3 *4:3 0.00028693
4 *4:4 1.789e-05

*RES
1 *4:3 *4 13.9599
2 *4:4 *53:A 7.54615
3 *4:4 *4:3 7.54615
4 *4:2 *4:4 0.748789
*END

*D_NET *3 0.00465756

*CONN
*P *3 I *C 11.7 0 *L 0
*I *51:RN I *C 14.555 11.075 *L 0.00037 *D SDFFRX1
*I *47:RN I *C 8.1 5.985 *L 0.000536 *D SDFFRHQX1
*I *44:RN I *C 6.5 9.405 *L 0.000536 *D SDFFRHQX1
*I *40:RN I *C 16.7 5.985 *L 0.000536 *D SDFFRHQX1
*I *38:RN I *C 13.3 7.695 *L 0.000536 *D SDFFRHQX1
*I *35:RN I *C 16.7 9.405 *L 0.000536 *D SDFFRHQX1
*I *32:RN I *C 10.7 12.825 *L 0.000536 *D SDFFRHQX1
*I *31:RN I *C 6.5 11.115 *L 0.000536 *D SDFFRHQX1

*CAP
1 *3 0.00043521
2 *51:RN 2.267e-05
3 *47:RN 2.267e-05
4 *44:RN 2.267e-05
5 *40:RN 2.267e-05
6 *38:RN 2.267e-05
7 *35:RN 2.267e-05
8 *32:RN 2.267e-05
9 *31:RN 2.267e-05
10 *3:9 0.00012761
11 *3:10 0.00012362
12 *3:11 7.455e-05
13 *3:12 4.237e-05
14 *3:13 0.00016849
15 *3:14 4.657e-05
16 *3:15 0.00019066
17 *3:16 0.00011958
18 *3:17 0.00016608
19 *3:18 7.341e-05
20 *3:19 8.562e-05
21 *3:20 0.0001316
22 *3:21 6.174e-05
23 *3:22 0.00015741
24 *3:23 2.103e-05
25 *3:24 2.103e-05
26 *3:25 7.724e-05
27 *3:26 0.00012003
28 *3:27 0.00021146
29 *3:28 8.891e-05
30 *3:29 8.891e-05
31 *3:30 2.843e-05
32 *3:31 5.27e-05
33 *3:32 3.242e-05
34 *3:33 0.00017218
35 *3:34 0.00022504
36 *3:35 5.159e-05
37 *3:36 1.868e-05
38 *3:37 1.868e-05
39 *3:38 3.013e-05
40 *3:39 3.985e-05
41 *3:41 3.002e-05
42 *3:42 2.534e-05
43 *3:43 0.00010754
44 *3:44 0.00037221
45 *3:45 0.00026267
46 *3:46 0.00028134
47 *3:47 7.636e-05
48 *3:48 1.789e-05

*RES
1 *3:42 *40:RN 7.54615
2 *3:42 *3:41 0.98578
3 *3:25 *31:RN 7.54615
4 *3:41 *3:17 0.791218
5 *3:22 *44:RN 7.54615
6 *3:22 *3:25 4.70912
7 *3:17 *3:16 5.43804
8 *3:21 *3:22 1.98582
9 *3:18 *3:16 0.791218
10 *3:20 *3:21 7.54615
11 *3:27 *35:RN 7.54615
12 *3:18 *3:27 2.46649
13 *3:20 *3:19 4.1726
14 *3:27 *3:43 5.91468
15 *3:13 *47:RN 7.54615
16 *3:39 *3:19 7.54615
17 *3:30 *3:43 7.54615
18 *3:13 *3:26 5.70996
19 *3:26 *3:39 1.48476
20 *3:24 *38:RN 7.54615
21 *3:31 *3:30 1.04315
22 *3:10 *3:26 7.54615
23 *3:24 *3:23 0.591895
24 *3:31 *3:28 0.752535
25 *3:10 *3:9 6.2589
26 *3:14 *3:23 7.54615
27 *3 *3:44 20.1617
28 *3:35 *51:RN 7.54615
29 *3:29 *3:28 4.1726
30 *3:12 *3:9 0.752535
31 *3:15 *3:14 4.6577
32 *3:15 *3:44 7.54615
33 *3:35 *3:38 1.4807
34 *3:32 *3:29 0.752535
35 *3:12 *3:11 1.04315
36 *3:11 *3:15 2.07775
37 *3:33 *3:38 7.54615
38 *3:33 *3:32 1.04315
39 *3:45 *3:11 7.54615
40 *3:34 *3:33 9.40252
41 *3:45 *3:46 9.84707
42 *3:46 *3:34 7.54615
43 *3:46 *3:47 2.95412
44 *3:36 *3:47 7.54615
45 *3:37 *3:36 0.521575
46 *3:48 *32:RN 7.54615
47 *3:48 *3:37 7.54615
48 *3:40 *3:48 0.748789
*END

